p edge 30 41 20
v 3 5 6 21
v 2 11 29
v 2 7 12
v 1 16
v 3 2 13 25
v 1 17
v 1 18
v 1 30
v 2 27 28
v 2 8 10
v 2 4 15
v 1 23
v 1 20
v 1 3
v 1 1
v 1 24
v 1 26
v 1 19
v 1 14
v 2 9 22
e 1 3
e 1 10
e 1 21
e 2 24
e 3 15
e 3 25
e 4 9
e 4 11
e 4 15
e 4 17
e 4 24
e 4 29
e 5 9
e 5 30
e 7 9
e 7 12
e 7 20
e 7 23
e 7 25
e 9 10
e 9 12
e 9 13
e 9 15
e 10 20
e 10 21
e 11 13
e 11 22
e 12 20
e 12 21
e 12 22
e 15 19
e 15 24
e 16 17
e 16 20
e 16 23
e 17 24
e 20 21
e 20 25
e 22 26
e 23 27
e 25 26
